c A SAT instance generated from a 3-CNF formula that had 32 clauses and 8 variables
p cnf 8 32
5 -3 -8 0
-7 3 4 0
-1 4 -7 0
3 -1 7 0
3 2 -4 0
-8 -3 -7 0
-2 8 -5 0
8 -3 -7 0
-1 6 -7 0
4 -1 3 0
1 -5 8 0
3 -8 2 0
-4 8 -5 0
1 4 5 0
-8 -6 5 0
-5 6 7 0
8 -7 -6 0
-8 -6 -7 0
-5 -1 7 0
-3 -7 6 0
-6 -5 -3 0
5 2 4 0
-8 1 7 0
-7 2 -5 0
3 -5 6 0
6 3 -7 0
-4 -2 6 0
-7 1 5 0
-5 -4 1 0
2 8 3 0
7 5 3 0
-6 3 1 0
